p cnf 7230 17
6601 6603 6605 6607 -6685 0
-6601 -6686 0
-6603 -6686 0
-6599 6684 0
-4064 -6613 -6689 0
-4062 -6611 -6687 0
4064 -6690 0
4062 -6688 0
-6605 -6686 0
6689 6690 0
6687 6688 0
6685 6686 0
6613 -6690 0
6611 -6688 0
-6607 -6686 0
6683 -6684 0
-6683 6684 0
